c input_v2/binomial/cnf_ALO_v2/10x10_120.cnf
c p 1000
c cnf 9284
s SATISFIABLE
c process-time: 0.00 seconds
-----
c input_v2/binomial/cnf_ALO_v2/10x10_121.cnf
c p 1000
c cnf 9078
s SATISFIABLE
c process-time: 0.00 seconds
-----
c input_v2/binomial/cnf_ALO_v2/10x10_122.cnf
c p 1000
c cnf 9133
s SATISFIABLE
c process-time: 0.00 seconds
-----
c input_v2/binomial/cnf_ALO_v2/10x10_123.cnf
c p 1100
c cnf 10374
s SATISFIABLE
c process-time: 0.01 seconds
-----
c input_v2/binomial/cnf_ALO_v2/10x10_124.cnf
c p 1000
c cnf 9114
s SATISFIABLE
c process-time: 0.00 seconds
-----
c input_v2/binomial/cnf_ALO_v2/10x10_130.cnf
c p 1000
c cnf 8968
s SATISFIABLE
c process-time: 0.00 seconds
-----
c input_v2/binomial/cnf_ALO_v2/10x10_131.cnf
c p 800
c cnf 7038
s SATISFIABLE
c process-time: 0.00 seconds
-----
c input_v2/binomial/cnf_ALO_v2/10x10_132.cnf
c p 900
c cnf 8162
s SATISFIABLE
c process-time: 0.00 seconds
-----
c input_v2/binomial/cnf_ALO_v2/10x10_133.cnf
c p 1100
c cnf 10504
s SATISFIABLE
c process-time: 0.00 seconds
-----
c input_v2/binomial/cnf_ALO_v2/10x10_134.cnf
c p 800
c cnf 7075
s SATISFIABLE
c process-time: 0.00 seconds
-----
c input_v2/binomial/cnf_ALO_v2/10x10_135.cnf
c p 900
c cnf 8107
s SATISFIABLE
c process-time: 0.00 seconds
-----
c input_v2/binomial/cnf_ALO_v2/10x10_136.cnf
c p 1000
c cnf 9173
s SATISFIABLE
c process-time: 0.00 seconds
-----
c input_v2/binomial/cnf_ALO_v2/10x10_137.cnf
c p 1000
c cnf 9178
s SATISFIABLE
c process-time: 0.00 seconds
-----
c input_v2/binomial/cnf_ALO_v2/10x10_138.cnf
c p 1100
c cnf 10419
s SATISFIABLE
c process-time: 0.00 seconds
-----
c input_v2/binomial/cnf_ALO_v2/10x10_139.cnf
c p 900
c cnf 8034
s SATISFIABLE
c process-time: 0.00 seconds
-----
c input_v2/binomial/cnf_ALO_v2/10x10_140.cnf
c p 1100
c cnf 10289
s SATISFIABLE
c process-time: 0.00 seconds
-----
c input_v2/binomial/cnf_ALO_v2/10x10_141.cnf
c p 1000
c cnf 9253
s SATISFIABLE
c process-time: 0.00 seconds
-----
c input_v2/binomial/cnf_ALO_v2/10x10_142.cnf
c p 1000
c cnf 9212
s SATISFIABLE
c process-time: 0.00 seconds
-----
c input_v2/binomial/cnf_ALO_v2/10x10_143.cnf
c p 900
c cnf 8005
s SATISFIABLE
c process-time: 0.00 seconds
-----
c input_v2/binomial/cnf_ALO_v2/10x10_144.cnf
c p 1100
c cnf 10116
s SATISFIABLE
c process-time: 0.00 seconds
-----
c input_v2/binomial/cnf_ALO_v2/10x10_145.cnf
c p 1100
c cnf 10248
s SATISFIABLE
c process-time: 0.00 seconds
-----
c input_v2/binomial/cnf_ALO_v2/10x15_387.cnf
c p 1500
c cnf 14913
s SATISFIABLE
c process-time: 0.00 seconds
-----
c input_v2/binomial/cnf_ALO_v2/10x15_388.cnf
c p 1350
c cnf 13304
s SATISFIABLE
c process-time: 0.00 seconds
-----
c input_v2/binomial/cnf_ALO_v2/10x15_389.cnf
c p 1200
c cnf 11328
s SATISFIABLE
c process-time: 0.01 seconds
-----
c input_v2/binomial/cnf_ALO_v2/10x15_390.cnf
c p 1500
c cnf 15090
s SATISFIABLE
c process-time: 0.01 seconds
-----
c input_v2/binomial/cnf_ALO_v2/10x15_396.cnf
c p 1200
c cnf 11343
s SATISFIABLE
c process-time: 0.01 seconds
-----
c input_v2/binomial/cnf_ALO_v2/10x15_397.cnf
c p 1350
c cnf 13142
s SATISFIABLE
c process-time: 0.01 seconds
-----
c input_v2/binomial/cnf_ALO_v2/10x15_398.cnf
c p 1200
c cnf 11320
s SATISFIABLE
c process-time: 0.01 seconds
-----
c input_v2/binomial/cnf_ALO_v2/10x15_399.cnf
c p 1350
c cnf 13149
s SATISFIABLE
c process-time: 0.01 seconds
-----
c input_v2/binomial/cnf_ALO_v2/10x15_400.cnf
c p 1200
c cnf 11346
s SATISFIABLE
c process-time: 0.03 seconds
-----
c input_v2/binomial/cnf_ALO_v2/10x18_186.cnf
c p 2340
c cnf 26063
s SATISFIABLE
c process-time: 0.01 seconds
-----
c input_v2/binomial/cnf_ALO_v2/10x18_187.cnf
c p 1800
c cnf 18648
s SATISFIABLE
c process-time: 0.01 seconds
-----
c input_v2/binomial/cnf_ALO_v2/10x18_198.cnf
c p 2880
c cnf 34592
s SATISFIABLE
c process-time: 0.02 seconds
-----
c input_v2/binomial/cnf_ALO_v2/10x18_199.cnf
c p 2340
c cnf 26214
s SATISFIABLE
c process-time: 0.01 seconds
-----
c input_v2/binomial/cnf_ALO_v2/10x18_200.cnf
c p 2160
c cnf 23509
s SATISFIABLE
c process-time: 0.03 seconds
-----
c input_v2/binomial/cnf_ALO_v2/10x18_208.cnf
c p 2520
c cnf 29250
s SATISFIABLE
c process-time: 0.01 seconds
-----
c input_v2/binomial/cnf_ALO_v2/10x18_209.cnf
c p 2160
c cnf 23838
s SATISFIABLE
c process-time: 0.01 seconds
-----
c input_v2/binomial/cnf_ALO_v2/10x18_414.cnf
c p 3060
c cnf 37216
s SATISFIABLE
c process-time: 0.02 seconds
-----
c input_v2/binomial/cnf_ALO_v2/10x18_415.cnf
c p 2880
c cnf 34335
s SATISFIABLE
c process-time: 0.01 seconds
-----
c input_v2/binomial/cnf_ALO_v2/10x18_416.cnf
c p 1800
c cnf 18499
s SATISFIABLE
c process-time: 0.02 seconds
-----
c input_v2/binomial/cnf_ALO_v2/10x18_417.cnf
c p 2160
c cnf 23453
s SATISFIABLE
c process-time: 0.13 seconds
-----
c input_v2/binomial/cnf_ALO_v2/11x11_120.cnf
c p 1452
c cnf 14530
s SATISFIABLE
c process-time: 0.00 seconds
-----
c input_v2/binomial/cnf_ALO_v2/11x11_121.cnf
c p 1089
c cnf 10160
s SATISFIABLE
c process-time: 0.00 seconds
-----
c input_v2/binomial/cnf_ALO_v2/11x11_122.cnf
c p 968
c cnf 8870
s SATISFIABLE
c process-time: 0.00 seconds
-----
c input_v2/binomial/cnf_ALO_v2/11x11_123.cnf
c p 1452
c cnf 14533
s SATISFIABLE
c process-time: 0.01 seconds
-----
c input_v2/binomial/cnf_ALO_v2/11x11_124.cnf
c p 1452
c cnf 14488
s SATISFIABLE
c process-time: 0.00 seconds
-----
c input_v2/binomial/cnf_ALO_v2/11x11_130.cnf
c p 1210
c cnf 11605
s SATISFIABLE
c process-time: 0.00 seconds
-----
c input_v2/binomial/cnf_ALO_v2/11x11_131.cnf
c p 1573
c cnf 16235
s SATISFIABLE
c process-time: 0.00 seconds
-----
c input_v2/binomial/cnf_ALO_v2/11x11_132.cnf
c p 1331
c cnf 13109
s SATISFIABLE
c process-time: 0.01 seconds
-----
c input_v2/binomial/cnf_ALO_v2/11x11_133.cnf
c p 1210
c cnf 11627
s SATISFIABLE
c process-time: 0.00 seconds
-----
c input_v2/binomial/cnf_ALO_v2/11x11_134.cnf
c p 1452
c cnf 14521
s SATISFIABLE
c process-time: 0.00 seconds
-----
c input_v2/binomial/cnf_ALO_v2/11x11_135.cnf
c p 1452
c cnf 14386
s SATISFIABLE
c process-time: 0.00 seconds
-----
c input_v2/binomial/cnf_ALO_v2/11x11_136.cnf
c p 968
c cnf 8809
s SATISFIABLE
c process-time: 0.01 seconds
-----
c input_v2/binomial/cnf_ALO_v2/11x11_137.cnf
c p 1452
c cnf 14733
s SATISFIABLE
c process-time: 0.00 seconds
-----
c input_v2/binomial/cnf_ALO_v2/11x11_138.cnf
c p 1452
c cnf 14537
s SATISFIABLE
c process-time: 0.00 seconds
-----
c input_v2/binomial/cnf_ALO_v2/11x11_139.cnf
c p 1089
c cnf 10161
s SATISFIABLE
c process-time: 0.00 seconds
-----
c input_v2/binomial/cnf_ALO_v2/11x11_140.cnf
c p 1452
c cnf 14724
s SATISFIABLE
c process-time: 0.00 seconds
-----
c input_v2/binomial/cnf_ALO_v2/11x11_141.cnf
c p 1089
c cnf 10172
s SATISFIABLE
c process-time: 0.00 seconds
-----
c input_v2/binomial/cnf_ALO_v2/11x11_142.cnf
c p 1210
c cnf 11554
s SATISFIABLE
c process-time: 0.00 seconds
-----
c input_v2/binomial/cnf_ALO_v2/11x11_143.cnf
c p 1089
c cnf 10277
s SATISFIABLE
c process-time: 0.00 seconds
-----
c input_v2/binomial/cnf_ALO_v2/11x11_144.cnf
c p 1210
c cnf 11543
s SATISFIABLE
c process-time: 0.00 seconds
-----
c input_v2/binomial/cnf_ALO_v2/11x11_145.cnf
c p 1210
c cnf 11662
s SATISFIABLE
c process-time: 0.00 seconds
-----
c input_v2/binomial/cnf_ALO_v2/12x12_120.cnf
c p 2016
c cnf 22082
s SATISFIABLE
c process-time: 0.01 seconds
-----
c input_v2/binomial/cnf_ALO_v2/12x12_121.cnf
c p 1440
c cnf 14289
s SATISFIABLE
c process-time: 0.01 seconds
-----
c input_v2/binomial/cnf_ALO_v2/12x12_122.cnf
c p 1872
c cnf 20161
s SATISFIABLE
c process-time: 0.01 seconds
-----
c input_v2/binomial/cnf_ALO_v2/12x12_123.cnf
c p 1584
c cnf 16211
s SATISFIABLE
c process-time: 0.00 seconds
-----
c input_v2/binomial/cnf_ALO_v2/12x12_124.cnf
c p 1872
c cnf 20073
s SATISFIABLE
c process-time: 0.01 seconds
-----
c input_v2/binomial/cnf_ALO_v2/12x12_130.cnf
c p 1872
c cnf 20071
s SATISFIABLE
c process-time: 0.01 seconds
-----
c input_v2/binomial/cnf_ALO_v2/12x12_131.cnf
c p 1440
c cnf 14385
s SATISFIABLE
c process-time: 0.01 seconds
-----
c input_v2/binomial/cnf_ALO_v2/12x12_132.cnf
c p 1872
c cnf 19899
s SATISFIABLE
c process-time: 0.01 seconds
-----
c input_v2/binomial/cnf_ALO_v2/12x12_133.cnf
c p 1872
c cnf 19770
s SATISFIABLE
c process-time: 0.00 seconds
-----
c input_v2/binomial/cnf_ALO_v2/12x12_134.cnf
c p 1728
c cnf 18306
s SATISFIABLE
c process-time: 0.01 seconds
-----
c input_v2/binomial/cnf_ALO_v2/12x12_135.cnf
c p 1584
c cnf 16121
s SATISFIABLE
c process-time: 0.01 seconds
-----
c input_v2/binomial/cnf_ALO_v2/12x12_136.cnf
c p 1728
c cnf 18094
s SATISFIABLE
c process-time: 0.01 seconds
-----
c input_v2/binomial/cnf_ALO_v2/12x12_137.cnf
c p 1584
c cnf 16232
s SATISFIABLE
c process-time: 0.01 seconds
-----
c input_v2/binomial/cnf_ALO_v2/12x12_138.cnf
c p 1584
c cnf 16246
s SATISFIABLE
c process-time: 0.00 seconds
-----
c input_v2/binomial/cnf_ALO_v2/12x12_139.cnf
c p 1728
c cnf 18075
s SATISFIABLE
c process-time: 0.02 seconds
-----
c input_v2/binomial/cnf_ALO_v2/12x12_140.cnf
c p 1584
c cnf 16068
s SATISFIABLE
c process-time: 0.00 seconds
-----
c input_v2/binomial/cnf_ALO_v2/12x12_141.cnf
c p 1584
c cnf 16305
s SATISFIABLE
c process-time: 0.00 seconds
-----
c input_v2/binomial/cnf_ALO_v2/12x12_142.cnf
c p 1296
c cnf 12577
s SATISFIABLE
c process-time: 0.00 seconds
-----
c input_v2/binomial/cnf_ALO_v2/12x12_143.cnf
c p 2016
c cnf 21956
s SATISFIABLE
c process-time: 0.01 seconds
-----
c input_v2/binomial/cnf_ALO_v2/12x12_144.cnf
c p 1440
c cnf 14372
s SATISFIABLE
c process-time: 0.00 seconds
-----
c input_v2/binomial/cnf_ALO_v2/12x12_145.cnf
c p 1584
c cnf 16152
s SATISFIABLE
c process-time: 0.01 seconds
-----
c input_v2/binomial/cnf_ALO_v2/12x15_39.cnf
c p 2700
c cnf 31700
s SATISFIABLE
c process-time: 0.01 seconds
-----
c input_v2/binomial/cnf_ALO_v2/12x15_43.cnf
c p 2340
c cnf 26250
s SATISFIABLE
c process-time: 0.02 seconds
-----
c input_v2/binomial/cnf_ALO_v2/12x15_45.cnf
c p 1800
c cnf 18540
s SATISFIABLE
c process-time: 0.01 seconds
-----
c input_v2/binomial/cnf_ALO_v2/12x15_46.cnf
c p 1980
c cnf 21058
s SATISFIABLE
c process-time: 0.01 seconds
-----
c input_v2/binomial/cnf_ALO_v2/12x23_210.cnf
c p 6624
c cnf 102332
s SATISFIABLE
c process-time: 0.04 seconds
-----
c input_v2/binomial/cnf_ALO_v2/13x13_120.cnf
c p 2197
c cnf 24542
s SATISFIABLE
c process-time: 0.01 seconds
-----
c input_v2/binomial/cnf_ALO_v2/13x13_121.cnf
c p 2028
c cnf 21873
s SATISFIABLE
c process-time: 0.01 seconds
-----
c input_v2/binomial/cnf_ALO_v2/13x13_122.cnf
c p 1690
c cnf 17322
s SATISFIABLE
c process-time: 0.01 seconds
-----
c input_v2/binomial/cnf_ALO_v2/13x13_123.cnf
c p 2366
c cnf 26851
s SATISFIABLE
c process-time: 0.01 seconds
-----
c input_v2/binomial/cnf_ALO_v2/13x13_124.cnf
c p 2197
c cnf 24391
s SATISFIABLE
c process-time: 0.01 seconds
-----
c input_v2/binomial/cnf_ALO_v2/13x13_130.cnf
c p 2197
c cnf 24464
s SATISFIABLE
c process-time: 0.02 seconds
-----
c input_v2/binomial/cnf_ALO_v2/13x13_131.cnf
c p 2028
c cnf 22059
s SATISFIABLE
c process-time: 0.01 seconds
-----
c input_v2/binomial/cnf_ALO_v2/13x13_132.cnf
c p 2366
c cnf 26841
s SATISFIABLE
c process-time: 0.01 seconds
-----
c input_v2/binomial/cnf_ALO_v2/13x13_133.cnf
c p 2028
c cnf 21950
s SATISFIABLE
c process-time: 0.01 seconds
-----
c input_v2/binomial/cnf_ALO_v2/13x13_134.cnf
c p 1859
c cnf 19538
s SATISFIABLE
c process-time: 0.03 seconds
-----
c input_v2/binomial/cnf_ALO_v2/13x13_135.cnf
c p 2028
c cnf 21844
s SATISFIABLE
c process-time: 0.01 seconds
-----
c input_v2/binomial/cnf_ALO_v2/13x13_136.cnf
c p 2197
c cnf 24300
s SATISFIABLE
c process-time: 0.02 seconds
-----
c input_v2/binomial/cnf_ALO_v2/13x13_137.cnf
c p 2197
c cnf 24296
s SATISFIABLE
c process-time: 0.01 seconds
-----
c input_v2/binomial/cnf_ALO_v2/13x13_138.cnf
c p 2366
c cnf 26783
s SATISFIABLE
c process-time: 0.02 seconds
-----
c input_v2/binomial/cnf_ALO_v2/13x13_139.cnf
c p 2535
c cnf 29398
s SATISFIABLE
c process-time: 0.01 seconds
-----
c input_v2/binomial/cnf_ALO_v2/13x13_140.cnf
c p 2028
c cnf 22311
s SATISFIABLE
c process-time: 0.01 seconds
-----
c input_v2/binomial/cnf_ALO_v2/13x13_141.cnf
c p 1859
c cnf 19774
s SATISFIABLE
c process-time: 0.01 seconds
-----
c input_v2/binomial/cnf_ALO_v2/13x13_142.cnf
c p 1859
c cnf 19472
s SATISFIABLE
c process-time: 0.02 seconds
-----
c input_v2/binomial/cnf_ALO_v2/13x13_143.cnf
c p 1859
c cnf 19550
s SATISFIABLE
c process-time: 0.01 seconds
-----
c input_v2/binomial/cnf_ALO_v2/13x13_144.cnf
c p 2535
c cnf 29587
s SATISFIABLE
c process-time: 0.01 seconds
-----
c input_v2/binomial/cnf_ALO_v2/13x13_145.cnf
c p 2366
c cnf 26883
s SATISFIABLE
c process-time: 0.01 seconds
-----
c input_v2/binomial/cnf_ALO_v2/14x14_120.cnf
c p 2744
c cnf 32106
s SATISFIABLE
c process-time: 0.09 seconds
-----
c input_v2/binomial/cnf_ALO_v2/14x14_121.cnf
c p 2940
c cnf 35436
s SATISFIABLE
c process-time: 0.02 seconds
-----
c input_v2/binomial/cnf_ALO_v2/14x14_122.cnf
c p 2940
c cnf 35414
s SATISFIABLE
c process-time: 0.01 seconds
-----
c input_v2/binomial/cnf_ALO_v2/14x14_123.cnf
c p 2548
c cnf 29051
s SATISFIABLE
c process-time: 0.01 seconds
-----
c input_v2/binomial/cnf_ALO_v2/14x14_124.cnf
c p 2744
c cnf 32092
s SATISFIABLE
c process-time: 0.01 seconds
-----
c input_v2/binomial/cnf_ALO_v2/14x14_130.cnf
c p 2548
c cnf 29332
s SATISFIABLE
c process-time: 0.01 seconds
-----
c input_v2/binomial/cnf_ALO_v2/14x14_131.cnf
c p 2940
c cnf 35428
s SATISFIABLE
c process-time: 0.01 seconds
-----
c input_v2/binomial/cnf_ALO_v2/14x14_132.cnf
c p 3136
c cnf 38722
s SATISFIABLE
c process-time: 0.01 seconds
-----
c input_v2/binomial/cnf_ALO_v2/14x14_133.cnf
c p 3136
c cnf 38413
s SATISFIABLE
c process-time: 0.01 seconds
-----
c input_v2/binomial/cnf_ALO_v2/14x14_134.cnf
c p 2940
c cnf 35351
s SATISFIABLE
c process-time: 0.03 seconds
-----
c input_v2/binomial/cnf_ALO_v2/14x14_135.cnf
c p 2352
c cnf 26353
s SATISFIABLE
c process-time: 0.01 seconds
-----
c input_v2/binomial/cnf_ALO_v2/14x14_136.cnf
c p 2352
c cnf 26310
s SATISFIABLE
c process-time: 0.01 seconds
-----
c input_v2/binomial/cnf_ALO_v2/14x14_137.cnf
c p 2940
c cnf 35282
s SATISFIABLE
c process-time: 0.01 seconds
-----
c input_v2/binomial/cnf_ALO_v2/14x14_138.cnf
c p 2940
c cnf 35637
s SATISFIABLE
c process-time: 0.07 seconds
-----
c input_v2/binomial/cnf_ALO_v2/14x14_139.cnf
c p 2744
c cnf 32408
s SATISFIABLE
c process-time: 0.01 seconds
-----
c input_v2/binomial/cnf_ALO_v2/14x14_140.cnf
c p 3136
c cnf 38683
s SATISFIABLE
c process-time: 0.01 seconds
-----
c input_v2/binomial/cnf_ALO_v2/14x14_141.cnf
c p 3136
c cnf 38379
s SATISFIABLE
c process-time: 0.02 seconds
-----
c input_v2/binomial/cnf_ALO_v2/14x14_142.cnf
c p 2940
c cnf 35497
s SATISFIABLE
c process-time: 0.01 seconds
-----
c input_v2/binomial/cnf_ALO_v2/14x14_143.cnf
c p 2940
c cnf 35209
s SATISFIABLE
c process-time: 0.02 seconds
-----
c input_v2/binomial/cnf_ALO_v2/14x14_144.cnf
c p 2352
c cnf 26309
s SATISFIABLE
c process-time: 0.01 seconds
-----
c input_v2/binomial/cnf_ALO_v2/14x14_145.cnf
c p 3136
c cnf 38659
s SATISFIABLE
c process-time: 0.06 seconds
-----
c input_v2/binomial/cnf_ALO_v2/14x24_105.cnf
c p 7392
c cnf 114253
s SATISFIABLE
c process-time: 0.49 seconds
-----
c input_v2/binomial/cnf_ALO_v2/14x24_110.cnf
c p 6720
c cnf 99344
s SATISFIABLE
c process-time: 2s 1.58 seconds
-----
c input_v2/binomial/cnf_ALO_v2/14x24_113.cnf
c p 8064
c cnf 129921
s SATISFIABLE
c process-time: 0.16 seconds
-----
c input_v2/binomial/cnf_ALO_v2/14x24_117.cnf
c p 6384
c cnf 92282
s SATISFIABLE
c process-time: 0.24 seconds
-----
c input_v2/binomial/cnf_ALO_v2/14x24_129.cnf
c p 6720
c cnf 99468
s SATISFIABLE
c process-time: 0.29 seconds
-----
c input_v2/binomial/cnf_ALO_v2/14x24_139.cnf
c p 6720
c cnf 99549
s SATISFIABLE
c process-time: 0.18 seconds
-----
c input_v2/binomial/cnf_ALO_v2/14x24_147.cnf
c p 7056
c cnf 106487
s SATISFIABLE
c process-time: 0.36 seconds
-----
c input_v2/binomial/cnf_ALO_v2/14x24_148.cnf
c p 5040
c cnf 65829
s SATISFIABLE
c process-time: 0.17 seconds
-----
c input_v2/binomial/cnf_ALO_v2/14x24_157.cnf
c p 5376
c cnf 72273
s SATISFIABLE
c process-time: 0.46 seconds
-----
c input_v2/binomial/cnf_ALO_v2/14x24_158.cnf
c p 4368
c cnf 53504
s SATISFIABLE
c process-time: 1s 0.65 seconds
-----
c input_v2/binomial/cnf_ALO_v2/14x24_169.cnf
c p 5040
c cnf 65677
s SATISFIABLE
c process-time: 1s 0.82 seconds
-----
c input_v2/binomial/cnf_ALO_v2/14x24_179.cnf
c p 4368
c cnf 53637
s SATISFIABLE
c process-time: 3s 3.44 seconds
-----
c input_v2/binomial/cnf_ALO_v2/14x24_188.cnf
c p 7392
c cnf 114651
s SATISFIABLE
c process-time: 0.05 seconds
-----
c input_v2/binomial/cnf_ALO_v2/14x24_189.cnf
c p 8736
c cnf 145845
s SATISFIABLE
c process-time: 0.23 seconds
-----
c input_v2/binomial/cnf_ALO_v2/14x24_190.cnf
c p 4368
c cnf 53522
s SATISFIABLE
c process-time: 4s 4.07 seconds
-----
c input_v2/binomial/cnf_ALO_v2/14x24_199.cnf
c p 4032
c cnf 47928
s SATISFIABLE
c process-time: 0.42 seconds
-----
c input_v2/binomial/cnf_ALO_v2/14x24_200.cnf
c p 4704
c cnf 59511
s SATISFIABLE
c process-time: 2s 2.36 seconds
-----
c input_v2/binomial/cnf_ALO_v2/14x24_208.cnf
c p 6720
c cnf 99414
s SATISFIABLE
c process-time: 0.34 seconds
-----
c input_v2/binomial/cnf_ALO_v2/14x24_209.cnf
c p 4704
c cnf 59559
s SATISFIABLE
c process-time: 0.33 seconds
-----
c input_v2/binomial/cnf_ALO_v2/14x24_218.cnf
c p 6720
c cnf 99669
s SATISFIABLE
c process-time: 0.07 seconds
-----
c input_v2/binomial/cnf_ALO_v2/14x24_219.cnf
c p 5040
c cnf 65623
s SATISFIABLE
c process-time: 1s 1.13 seconds
-----
c input_v2/binomial/cnf_ALO_v2/14x24_418.cnf
c p 6048
c cnf 85739
s SATISFIABLE
c process-time: 0.12 seconds
-----
c input_v2/binomial/cnf_ALO_v2/14x24_419.cnf
c p 8064
c cnf 129646
s SATISFIABLE
c process-time: 0.40 seconds
-----
c input_v2/binomial/cnf_ALO_v2/14x24_420.cnf
c p 4704
c cnf 59559
s SATISFIABLE
c process-time: 10s 10.00 seconds
-----
c input_v2/binomial/cnf_ALO_v2/15x15_120.cnf
c p 3600
c cnf 45741
s SATISFIABLE
c process-time: 0.03 seconds
-----
c input_v2/binomial/cnf_ALO_v2/15x15_121.cnf
c p 2925
c cnf 34212
s SATISFIABLE
c process-time: 0.01 seconds
-----
c input_v2/binomial/cnf_ALO_v2/15x15_122.cnf
c p 3375
c cnf 41627
s SATISFIABLE
c process-time: 0.01 seconds
-----
c input_v2/binomial/cnf_ALO_v2/15x15_123.cnf
c p 3600
c cnf 45520
s SATISFIABLE
c process-time: 0.02 seconds
-----
c input_v2/binomial/cnf_ALO_v2/15x15_124.cnf
c p 3600
c cnf 45486
s SATISFIABLE
c process-time: 0.02 seconds
-----
c input_v2/binomial/cnf_ALO_v2/15x15_130.cnf
c p 3375
c cnf 41664
s SATISFIABLE
c process-time: 0.01 seconds
-----
c input_v2/binomial/cnf_ALO_v2/15x15_131.cnf
c p 3600
c cnf 45388
s SATISFIABLE
c process-time: 0.02 seconds
-----
c input_v2/binomial/cnf_ALO_v2/15x15_132.cnf
c p 3600
c cnf 45522
s SATISFIABLE
c process-time: 0.02 seconds
-----
c input_v2/binomial/cnf_ALO_v2/15x15_133.cnf
c p 3600
c cnf 45345
s SATISFIABLE
c process-time: 0.13 seconds
-----
c input_v2/binomial/cnf_ALO_v2/15x15_134.cnf
c p 3150
c cnf 37892
s SATISFIABLE
c process-time: 0.09 seconds
-----
c input_v2/binomial/cnf_ALO_v2/15x15_135.cnf
c p 3600
c cnf 45525
s SATISFIABLE
c process-time: 0.01 seconds
-----
c input_v2/binomial/cnf_ALO_v2/15x15_136.cnf
c p 3600
c cnf 45662
s SATISFIABLE
c process-time: 0.02 seconds
-----
c input_v2/binomial/cnf_ALO_v2/15x15_137.cnf
c p 3600
c cnf 45735
s SATISFIABLE
c process-time: 0.07 seconds
-----
c input_v2/binomial/cnf_ALO_v2/15x15_138.cnf
c p 3600
c cnf 45498
s SATISFIABLE
c process-time: 0.03 seconds
-----
c input_v2/binomial/cnf_ALO_v2/15x15_139.cnf
c p 3375
c cnf 41566
s SATISFIABLE
c process-time: 0.13 seconds
-----
c input_v2/binomial/cnf_ALO_v2/15x15_140.cnf
c p 3600
c cnf 45549
s SATISFIABLE
c process-time: 0.01 seconds
-----
c input_v2/binomial/cnf_ALO_v2/15x15_141.cnf
c p 3600
c cnf 45557
s SATISFIABLE
c process-time: 0.02 seconds
-----
c input_v2/binomial/cnf_ALO_v2/15x15_142.cnf
c p 3600
c cnf 45433
s SATISFIABLE
c process-time: 0.01 seconds
-----
c input_v2/binomial/cnf_ALO_v2/15x15_143.cnf
c p 3600
c cnf 45867
s SATISFIABLE
c process-time: 0.07 seconds
-----
c input_v2/binomial/cnf_ALO_v2/15x15_144.cnf
c p 3600
c cnf 45666
s SATISFIABLE
c process-time: 0.03 seconds
-----
c input_v2/binomial/cnf_ALO_v2/15x15_145.cnf
c p 3375
c cnf 41838
s SATISFIABLE
c process-time: 0.01 seconds
-----
c input_v2/binomial/cnf_ALO_v2/15x20_307.cnf
c p 3300
c cnf 37683
s SATISFIABLE
c process-time: 6s 5.81 seconds
-----
c input_v2/binomial/cnf_ALO_v2/15x20_308.cnf
c p 3600
c cnf 42459
s SATISFIABLE
c process-time: 0.18 seconds
-----
c input_v2/binomial/cnf_ALO_v2/15x20_309.cnf
c p 3300
c cnf 37829
s SATISFIABLE
c process-time: 4s 3.98 seconds
-----
c input_v2/binomial/cnf_ALO_v2/15x20_310.cnf
c p 4500
c cnf 57903
s SATISFIABLE
c process-time: 1s 0.85 seconds
-----
c input_v2/binomial/cnf_ALO_v2/15x20_317.cnf
c p 4500
c cnf 57761
s SATISFIABLE
c process-time: 0.09 seconds
-----
c input_v2/binomial/cnf_ALO_v2/15x20_318.cnf
c p 4500
c cnf 57819
s SATISFIABLE
c process-time: 0.40 seconds
-----
c input_v2/binomial/cnf_ALO_v2/15x20_319.cnf
c p 4200
c cnf 52404
s SATISFIABLE
c process-time: 4s 3.64 seconds
-----
c input_v2/binomial/cnf_ALO_v2/15x20_320.cnf
c p 4200
c cnf 52497
s SATISFIABLE
c process-time: 0.37 seconds
-----
c input_v2/binomial/cnf_ALO_v2/17x17_100.cnf
c p 3468
c cnf 40729
s SATISFIABLE
c process-time: 0.38 seconds
-----
c input_v2/binomial/cnf_ALO_v2/17x17_104.cnf
c p 5780
c cnf 83850
s SATISFIABLE
c process-time: 0.23 seconds
-----
c input_v2/binomial/cnf_ALO_v2/17x17_109.cnf
c p 5491
c cnf 77677
s SATISFIABLE
c process-time: 0.21 seconds
-----
c input_v2/binomial/cnf_ALO_v2/17x17_112.cnf
c p 6069
c cnf 89645
s SATISFIABLE
c process-time: 0.03 seconds
-----
c input_v2/binomial/cnf_ALO_v2/17x17_116.cnf
c p 5202
c cnf 71839
s SATISFIABLE
c process-time: 0.19 seconds
-----
c input_v2/binomial/cnf_ALO_v2/17x17_120.cnf
c p 3757
c cnf 45368
s SATISFIABLE
c process-time: 1s 0.94 seconds
-----
c input_v2/binomial/cnf_ALO_v2/17x17_128.cnf
c p 3757
c cnf 45662
s SATISFIABLE
c process-time: 0.14 seconds
-----
c input_v2/binomial/cnf_ALO_v2/17x17_136.cnf
c p 5491
c cnf 77954
s SATISFIABLE
c process-time: 0.07 seconds
-----
c input_v2/binomial/cnf_ALO_v2/17x17_138.cnf
c p 3468
c cnf 40626
s SATISFIABLE
c process-time: 1s 1.29 seconds
-----
c input_v2/binomial/cnf_ALO_v2/17x17_165.cnf
c p 3757
c cnf 45336
s SATISFIABLE
c process-time: 1s 0.99 seconds
-----
c input_v2/binomial/cnf_ALO_v2/17x17_166.cnf
c p 3468
c cnf 40633
s SATISFIABLE
c process-time: 2s 2.48 seconds
-----
c input_v2/binomial/cnf_ALO_v2/17x17_167.cnf
c p 7803
c cnf 129588
s SATISFIABLE
c process-time: 0.06 seconds
-----
c input_v2/binomial/cnf_ALO_v2/17x17_168.cnf
c p 8381
c cnf 143120
s SATISFIABLE
c process-time: 0.13 seconds
-----
c input_v2/binomial/cnf_ALO_v2/17x17_175.cnf
c p 2890
c cnf 31821
s SATISFIABLE
c process-time: 9s 9.19 seconds
-----
c input_v2/binomial/cnf_ALO_v2/17x17_176.cnf
c p 2601
c cnf 27699
s SATISFIABLE
c process-time: 1s 1.31 seconds
-----
c input_v2/binomial/cnf_ALO_v2/17x17_177.cnf
c p 6358
c cnf 96224
s SATISFIABLE
c process-time: 1s 0.64 seconds
-----
c input_v2/binomial/cnf_ALO_v2/17x17_178.cnf
c p 7225
c cnf 116108
s SATISFIABLE
c process-time: 0.28 seconds
-----
c input_v2/binomial/cnf_ALO_v2/17x17_187.cnf
c p 3179
c cnf 36186
s SATISFIABLE
c process-time: 1s 1.03 seconds
-----
c input_v2/binomial/cnf_ALO_v2/17x17_188.cnf
c p 3468
c cnf 40668
s SATISFIABLE
c process-time: 0.34 seconds
-----
c input_v2/binomial/cnf_ALO_v2/17x17_197.cnf
c p 3468
c cnf 40717
s SATISFIABLE
c process-time: 1s 0.54 seconds
-----
c input_v2/binomial/cnf_ALO_v2/17x17_198.cnf
c p 2890
c cnf 31643
s SATISFIABLE
c process-time: 5s 4.85 seconds
-----
c input_v2/binomial/cnf_ALO_v2/17x17_230.cnf
c p 2023
c cnf 19923
s SATISFIABLE
c process-time: 3s 3.40 seconds
-----
c input_v2/binomial/cnf_ALO_v2/17x17_240.cnf
c p 2890
c cnf 31771
s SATISFIABLE
c process-time: 1s 1.27 seconds
-----
c input_v2/binomial/cnf_ALO_v2/17x17_250.cnf
c p 9537
c cnf 171554
s SATISFIABLE
c process-time: 0.06 seconds
-----
c input_v2/binomial/cnf_ALO_v2/17x17_260.cnf
c p 9537
c cnf 172601
s SATISFIABLE
c process-time: 0.04 seconds
-----
c input_v2/binomial/cnf_ALO_v2/17x17_270.cnf
c p 8381
c cnf 143296
s SATISFIABLE
c process-time: 0.16 seconds
-----
c input_v2/binomial/cnf_ALO_v2/17x17_429.cnf
c p 5491
c cnf 77807
s SATISFIABLE
c process-time: 0.02 seconds
-----
c input_v2/binomial/cnf_ALO_v2/17x17_439.cnf
c p 3468
c cnf 40796
s SATISFIABLE
c process-time: 0.36 seconds
-----
c input_v2/binomial/cnf_ALO_v2/17x17_449.cnf
c p 4913
c cnf 66503
s SATISFIABLE
c process-time: 0.21 seconds
-----
c input_v2/binomial/cnf_ALO_v2/20x20_430.cnf
c p 10400
c cnf 180445
s SATISFIABLE
c process-time: 1s 0.68 seconds
-----
c input_v2/binomial/cnf_ALO_v2/20x20_440.cnf
c p 5200
c cnf 65094
s SATISFIABLE
c process-time: 15s 15.06 seconds
-----
c input_v2/binomial/cnf_ALO_v2/20x20_450.cnf
c p 6400
c cnf 87584
s SATISFIABLE
c process-time: 15s 15.27 seconds
-----
c input_v2/binomial/cnf_ALO_v2/20x36_106.cnf
c p 26640
c cnf 610357
s SATISFIABLE
c process-time: 7s 6.91 seconds
-----
c input_v2/binomial/cnf_ALO_v2/20x36_114.cnf
c p 26640
c cnf 610718
s SATISFIABLE
c process-time: 4s 4.37 seconds
-----
c input_v2/binomial/cnf_ALO_v2/20x36_118.cnf
c p 22320
c cnf 459507
s SATISFIABLE
c process-time: 3m 15s 195.13 seconds
-----
c input_v2/binomial/cnf_ALO_v2/20x36_130.cnf
c p 22320
c cnf 459524
s SATISFIABLE
c process-time: 10s 9.98 seconds
-----
c input_v2/binomial/cnf_ALO_v2/20x36_140.cnf
c p 22320
c cnf 459572
s SATISFIABLE
c process-time: 1m 15s 75.30 seconds
-----
c input_v2/binomial/cnf_ALO_v2/20x36_149.cnf
c p 20160
c cnf 390402
s SATISFIABLE
c process-time: 2m 52s 171.82 seconds
-----
c input_v2/binomial/cnf_ALO_v2/20x36_150.cnf
c p 15840
c cnf 267706
c process-time: 15m 899.91 seconds
UNKNOWN
-----
c input_v2/binomial/cnf_ALO_v2/20x36_159.cnf
c p 22320
c cnf 459715
s SATISFIABLE
c process-time: 2m 3s 122.84 seconds
-----
c input_v2/binomial/cnf_ALO_v2/20x36_160.cnf
c p 15840
c cnf 267728
c process-time: 15m 900.00 seconds
UNKNOWN
-----
c input_v2/binomial/cnf_ALO_v2/20x36_170.cnf
c p 23760
c cnf 508007
s SATISFIABLE
c process-time: 21s 20.68 seconds
-----
c input_v2/binomial/cnf_ALO_v2/20x36_180.cnf
c p 15840
c cnf 267862
s SATISFIABLE
c process-time: 9m 41s 580.77 seconds
-----
c input_v2/binomial/cnf_ALO_v2/20x36_210.cnf
c p 23760
c cnf 508007
s SATISFIABLE
c process-time: 21s 20.76 seconds
-----
c input_v2/binomial/cnf_ALO_v2/20x36_220.cnf
c p 26640
c cnf 609690
s SATISFIABLE
c process-time: 7s 7.11 seconds
-----
c input_v2/binomial/cnf_ALO_v2/25x25_60.cnf
c p 15625
c cnf 280163
s SATISFIABLE
c process-time: 5m 53s 352.78 seconds
-----
c input_v2/binomial/cnf_ALO_v2/25x25_66.cnf
c p 18750
c cnf 373002
s SATISFIABLE
c process-time: 11s 10.68 seconds
-----
c input_v2/binomial/cnf_ALO_v2/25x25_72.cnf
c p 24375
c cnf 565718
s SATISFIABLE
c process-time: 6s 5.54 seconds
-----
c input_v2/binomial/cnf_ALO_v2/25x25_78.cnf
c p 19375
c cnf 392746
s SATISFIABLE
c process-time: 16s 15.63 seconds
-----
c input_v2/binomial/cnf_ALO_v2/25x42_110.cnf
c p 65100
c cnf 2188349
s SATISFIABLE
c process-time: 14s 14.11 seconds
-----
c input_v2/binomial/cnf_ALO_v2/35x48_190.cnf
c p 67200
c cnf 1740245
c process-time: 15m 899.86 seconds
UNKNOWN
-----
c input_v2/binomial/cnf_ALO_v2/6x6_120.cnf
c p 144
c cnf 896
s SATISFIABLE
c process-time: 0.00 seconds
-----
c input_v2/binomial/cnf_ALO_v2/6x6_121.cnf
c p 216
c cnf 1324
s SATISFIABLE
c process-time: 0.00 seconds
-----
c input_v2/binomial/cnf_ALO_v2/6x6_122.cnf
c p 180
c cnf 1097
s SATISFIABLE
c process-time: 0.00 seconds
-----
c input_v2/binomial/cnf_ALO_v2/6x6_123.cnf
c p 180
c cnf 1167
s SATISFIABLE
c process-time: 0.00 seconds
-----
c input_v2/binomial/cnf_ALO_v2/6x6_124.cnf
c p 180
c cnf 1089
s SATISFIABLE
c process-time: 0.00 seconds
-----
c input_v2/binomial/cnf_ALO_v2/6x6_125.cnf
c p 180
c cnf 1110
s SATISFIABLE
c process-time: 0.00 seconds
-----
c input_v2/binomial/cnf_ALO_v2/6x6_130.cnf
c p 144
c cnf 895
s SATISFIABLE
c process-time: 0.00 seconds
-----
c input_v2/binomial/cnf_ALO_v2/6x6_131.cnf
c p 216
c cnf 1313
s SATISFIABLE
c process-time: 0.00 seconds
-----
c input_v2/binomial/cnf_ALO_v2/6x6_132.cnf
c p 144
c cnf 879
s SATISFIABLE
c process-time: 0.00 seconds
-----
c input_v2/binomial/cnf_ALO_v2/6x6_133.cnf
c p 216
c cnf 1282
s SATISFIABLE
c process-time: 0.00 seconds
-----
c input_v2/binomial/cnf_ALO_v2/6x6_134.cnf
c p 216
c cnf 1302
s SATISFIABLE
c process-time: 0.00 seconds
-----
c input_v2/binomial/cnf_ALO_v2/6x6_135.cnf
c p 144
c cnf 880
s SATISFIABLE
c process-time: 0.00 seconds
-----
c input_v2/binomial/cnf_ALO_v2/6x6_136.cnf
c p 144
c cnf 922
s SATISFIABLE
c process-time: 0.00 seconds
-----
c input_v2/binomial/cnf_ALO_v2/6x6_137.cnf
c p 180
c cnf 1154
s SATISFIABLE
c process-time: 0.00 seconds
-----
c input_v2/binomial/cnf_ALO_v2/6x6_138.cnf
c p 180
c cnf 1140
s SATISFIABLE
c process-time: 0.00 seconds
-----
c input_v2/binomial/cnf_ALO_v2/6x6_139.cnf
c p 180
c cnf 1089
s SATISFIABLE
c process-time: 0.00 seconds
-----
c input_v2/binomial/cnf_ALO_v2/6x6_140.cnf
c p 252
c cnf 1470
s SATISFIABLE
c process-time: 0.00 seconds
-----
c input_v2/binomial/cnf_ALO_v2/6x6_141.cnf
c p 144
c cnf 881
s SATISFIABLE
c process-time: 0.00 seconds
-----
c input_v2/binomial/cnf_ALO_v2/6x6_142.cnf
c p 180
c cnf 1105
s SATISFIABLE
c process-time: 0.00 seconds
-----
c input_v2/binomial/cnf_ALO_v2/6x6_143.cnf
c p 216
c cnf 1336
s SATISFIABLE
c process-time: 0.00 seconds
-----
c input_v2/binomial/cnf_ALO_v2/6x6_144.cnf
c p 216
c cnf 1347
s SATISFIABLE
c process-time: 0.01 seconds
-----
c input_v2/binomial/cnf_ALO_v2/6x6_145.cnf
c p 180
c cnf 1114
s SATISFIABLE
c process-time: 0.00 seconds
-----
c input_v2/binomial/cnf_ALO_v2/7x7_120.cnf
c p 294
c cnf 1933
s SATISFIABLE
c process-time: 0.00 seconds
-----
c input_v2/binomial/cnf_ALO_v2/7x7_121.cnf
c p 343
c cnf 2414
s SATISFIABLE
c process-time: 0.00 seconds
-----
c input_v2/binomial/cnf_ALO_v2/7x7_122.cnf
c p 343
c cnf 2459
s SATISFIABLE
c process-time: 0.00 seconds
-----
c input_v2/binomial/cnf_ALO_v2/7x7_123.cnf
c p 245
c cnf 1617
s SATISFIABLE
c process-time: 0.00 seconds
-----
c input_v2/binomial/cnf_ALO_v2/7x7_124.cnf
c p 294
c cnf 2007
s SATISFIABLE
c process-time: 0.00 seconds
-----
c input_v2/binomial/cnf_ALO_v2/7x7_130.cnf
c p 196
c cnf 1372
s SATISFIABLE
c process-time: 0.00 seconds
-----
c input_v2/binomial/cnf_ALO_v2/7x7_131.cnf
c p 294
c cnf 2072
s SATISFIABLE
c process-time: 0.00 seconds
-----
c input_v2/binomial/cnf_ALO_v2/7x7_132.cnf
c p 392
c cnf 2744
s SATISFIABLE
c process-time: 0.00 seconds
-----
c input_v2/binomial/cnf_ALO_v2/7x7_133.cnf
c p 294
c cnf 2102
s SATISFIABLE
c process-time: 0.00 seconds
-----
c input_v2/binomial/cnf_ALO_v2/7x7_134.cnf
c p 245
c cnf 1659
s SATISFIABLE
c process-time: 0.00 seconds
-----
c input_v2/binomial/cnf_ALO_v2/7x7_135.cnf
c p 343
c cnf 2498
s SATISFIABLE
c process-time: 0.00 seconds
-----
c input_v2/binomial/cnf_ALO_v2/7x7_136.cnf
c p 245
c cnf 1648
s SATISFIABLE
c process-time: 0.00 seconds
-----
c input_v2/binomial/cnf_ALO_v2/7x7_137.cnf
c p 245
c cnf 1680
s SATISFIABLE
c process-time: 0.00 seconds
-----
c input_v2/binomial/cnf_ALO_v2/7x7_138.cnf
c p 294
c cnf 2035
s SATISFIABLE
c process-time: 0.00 seconds
-----
c input_v2/binomial/cnf_ALO_v2/7x7_139.cnf
c p 294
c cnf 2067
s SATISFIABLE
c process-time: 0.00 seconds
-----
c input_v2/binomial/cnf_ALO_v2/7x7_140.cnf
c p 294
c cnf 2002
s SATISFIABLE
c process-time: 0.00 seconds
-----
c input_v2/binomial/cnf_ALO_v2/7x7_141.cnf
c p 294
c cnf 2009
s SATISFIABLE
c process-time: 0.00 seconds
-----
c input_v2/binomial/cnf_ALO_v2/7x7_142.cnf
c p 294
c cnf 2031
s SATISFIABLE
c process-time: 0.00 seconds
-----
c input_v2/binomial/cnf_ALO_v2/7x7_143.cnf
c p 343
c cnf 2488
s SATISFIABLE
c process-time: 0.00 seconds
-----
c input_v2/binomial/cnf_ALO_v2/7x7_144.cnf
c p 294
c cnf 2038
s SATISFIABLE
c process-time: 0.00 seconds
-----
c input_v2/binomial/cnf_ALO_v2/7x7_145.cnf
c p 294
c cnf 1996
s SATISFIABLE
c process-time: 0.00 seconds
-----
c input_v2/binomial/cnf_ALO_v2/8x8_120.cnf
c p 512
c cnf 3908
s SATISFIABLE
c process-time: 0.00 seconds
-----
c input_v2/binomial/cnf_ALO_v2/8x8_121.cnf
c p 512
c cnf 3916
s SATISFIABLE
c process-time: 0.00 seconds
-----
c input_v2/binomial/cnf_ALO_v2/8x8_122.cnf
c p 512
c cnf 4030
s SATISFIABLE
c process-time: 0.00 seconds
-----
c input_v2/binomial/cnf_ALO_v2/8x8_123.cnf
c p 512
c cnf 3870
s SATISFIABLE
c process-time: 0.00 seconds
-----
c input_v2/binomial/cnf_ALO_v2/8x8_124.cnf
c p 384
c cnf 2981
s SATISFIABLE
c process-time: 0.00 seconds
-----
c input_v2/binomial/cnf_ALO_v2/8x8_130.cnf
c p 384
c cnf 2857
s SATISFIABLE
c process-time: 0.00 seconds
-----
c input_v2/binomial/cnf_ALO_v2/8x8_131.cnf
c p 512
c cnf 3916
s SATISFIABLE
c process-time: 0.00 seconds
-----
c input_v2/binomial/cnf_ALO_v2/8x8_132.cnf
c p 448
c cnf 3344
s SATISFIABLE
c process-time: 0.00 seconds
-----
c input_v2/binomial/cnf_ALO_v2/8x8_133.cnf
c p 384
c cnf 2895
s SATISFIABLE
c process-time: 0.00 seconds
-----
c input_v2/binomial/cnf_ALO_v2/8x8_134.cnf
c p 512
c cnf 3835
s SATISFIABLE
c process-time: 0.00 seconds
-----
c input_v2/binomial/cnf_ALO_v2/8x8_135.cnf
c p 384
c cnf 2852
s SATISFIABLE
c process-time: 0.00 seconds
-----
c input_v2/binomial/cnf_ALO_v2/8x8_136.cnf
c p 448
c cnf 3362
s SATISFIABLE
c process-time: 0.00 seconds
-----
c input_v2/binomial/cnf_ALO_v2/8x8_137.cnf
c p 512
c cnf 3911
s SATISFIABLE
c process-time: 0.00 seconds
-----
c input_v2/binomial/cnf_ALO_v2/8x8_138.cnf
c p 320
c cnf 2365
s SATISFIABLE
c process-time: 0.00 seconds
-----
c input_v2/binomial/cnf_ALO_v2/8x8_139.cnf
c p 512
c cnf 3864
s SATISFIABLE
c process-time: 0.00 seconds
-----
c input_v2/binomial/cnf_ALO_v2/8x8_140.cnf
c p 448
c cnf 3451
s SATISFIABLE
c process-time: 0.00 seconds
-----
c input_v2/binomial/cnf_ALO_v2/8x8_141.cnf
c p 512
c cnf 4021
s SATISFIABLE
c process-time: 0.00 seconds
-----
c input_v2/binomial/cnf_ALO_v2/8x8_142.cnf
c p 448
c cnf 3393
s SATISFIABLE
c process-time: 0.00 seconds
-----
c input_v2/binomial/cnf_ALO_v2/8x8_143.cnf
c p 576
c cnf 4551
s SATISFIABLE
c process-time: 0.00 seconds
-----
c input_v2/binomial/cnf_ALO_v2/8x8_144.cnf
c p 448
c cnf 3459
s SATISFIABLE
c process-time: 0.00 seconds
-----
c input_v2/binomial/cnf_ALO_v2/8x8_145.cnf
c p 512
c cnf 4000
s SATISFIABLE
c process-time: 0.00 seconds
-----
c input_v2/binomial/cnf_ALO_v2/9x9_120.cnf
c p 567
c cnf 4602
s SATISFIABLE
c process-time: 0.00 seconds
-----
c input_v2/binomial/cnf_ALO_v2/9x9_121.cnf
c p 729
c cnf 6165
s SATISFIABLE
c process-time: 0.00 seconds
-----
c input_v2/binomial/cnf_ALO_v2/9x9_122.cnf
c p 729
c cnf 6105
s SATISFIABLE
c process-time: 0.00 seconds
-----
c input_v2/binomial/cnf_ALO_v2/9x9_123.cnf
c p 648
c cnf 5297
s SATISFIABLE
c process-time: 0.00 seconds
-----
c input_v2/binomial/cnf_ALO_v2/9x9_124.cnf
c p 810
c cnf 7010
s SATISFIABLE
c process-time: 0.00 seconds
-----
c input_v2/binomial/cnf_ALO_v2/9x9_130.cnf
c p 729
c cnf 6134
s SATISFIABLE
c process-time: 0.00 seconds
-----
c input_v2/binomial/cnf_ALO_v2/9x9_131.cnf
c p 810
c cnf 6900
s SATISFIABLE
c process-time: 0.00 seconds
-----
c input_v2/binomial/cnf_ALO_v2/9x9_132.cnf
c p 810
c cnf 6950
s SATISFIABLE
c process-time: 0.00 seconds
-----
c input_v2/binomial/cnf_ALO_v2/9x9_133.cnf
c p 729
c cnf 6217
s SATISFIABLE
c process-time: 0.00 seconds
-----
c input_v2/binomial/cnf_ALO_v2/9x9_134.cnf
c p 567
c cnf 4700
s SATISFIABLE
c process-time: 0.00 seconds
-----
c input_v2/binomial/cnf_ALO_v2/9x9_135.cnf
c p 648
c cnf 5399
s SATISFIABLE
c process-time: 0.00 seconds
-----
c input_v2/binomial/cnf_ALO_v2/9x9_136.cnf
c p 648
c cnf 5417
s SATISFIABLE
c process-time: 0.00 seconds
-----
c input_v2/binomial/cnf_ALO_v2/9x9_137.cnf
c p 567
c cnf 4586
s SATISFIABLE
c process-time: 0.00 seconds
-----
c input_v2/binomial/cnf_ALO_v2/9x9_138.cnf
c p 648
c cnf 5436
s SATISFIABLE
c process-time: 0.00 seconds
-----
c input_v2/binomial/cnf_ALO_v2/9x9_139.cnf
c p 729
c cnf 6049
s SATISFIABLE
c process-time: 0.00 seconds
-----
c input_v2/binomial/cnf_ALO_v2/9x9_140.cnf
c p 729
c cnf 6290
s SATISFIABLE
c process-time: 0.00 seconds
-----
c input_v2/binomial/cnf_ALO_v2/9x9_141.cnf
c p 567
c cnf 4592
s SATISFIABLE
c process-time: 0.00 seconds
-----
c input_v2/binomial/cnf_ALO_v2/9x9_142.cnf
c p 810
c cnf 6985
s SATISFIABLE
c process-time: 0.00 seconds
-----
c input_v2/binomial/cnf_ALO_v2/9x9_143.cnf
c p 648
c cnf 5451
s SATISFIABLE
c process-time: 0.00 seconds
-----
c input_v2/binomial/cnf_ALO_v2/9x9_144.cnf
c p 729
c cnf 6163
s SATISFIABLE
c process-time: 0.00 seconds
-----
c input_v2/binomial/cnf_ALO_v2/9x9_145.cnf
c p 648
c cnf 5364
s SATISFIABLE
c process-time: 0.00 seconds
-----
UNKNOWN
-----

